NAME: tsp35_27
COMMENT: 35-tsp problem (Padberg/Rinaldi)
TYPE: TSP
DIMENSION: 35
EDGE_WEIGHT_TYPE : EUC_2D
NODE_COORD_SECTION
1 16 4
2 11 15
3 24 23
4 34 36
5 32 18
6 7 7
7 9 5
8 9 15
9 29 24
10 39 38
11 20 28
12 23 5
13 22 13
14 14 38
15 13 17
16 33 27
17 39 3
18 29 21
19 32 27
20 12 8
21 27 2
22 28 6
23 37 38
24 30 32
25 13 25
26 17 0
27 6 33
28 7 24
29 37 28
30 20 38
31 22 7
32 35 21
33 13 27
34 35 5
35 10 11
